9 1 11 1 13 3 9 1 11 1 13 1 11 1 9 1 8 1 6 1 8 1 9 1 11 1 8 1 4 1 
9 1 11 1 13 3 9 1 11 1 13 1 11 1 9 1 8 1 6 1 11 1 8 1 4 1 9 3 
13 1 14 1 13 1 11 1 9 1 11 1 9 1 8 1 6 1 9 1 8 1 6 1 5 1 6 1 8 1 5 1 1 1 3 1 5 1 1 1 
6 0 5 0 6 0 8 0 9 0 8 0 9 0 11 0 13 0 12 0 13 0 12 0 13 0 14 0 13 0 11 0 
9 0 11 0 9 0 8 0 6 0 9 0 8 0 6 0 4 0 6 0 8 0 4 0 1 0 3 0 4 0 1 0 3 0 4 0 6 0 3 0 0 0 1 0 3 0 0 0 1 0 
16 0 14 0 13 0 11 0 9 0 11 0 13 0 14 0 16 0 18 0 20 0 21 0 21 0 20 0 18 0 16 0 16 0 14 0 13 0 11 0 
9 0 11 0 13 0 14 0 16 0 18 0 20 0 21 0 22 3 23 0 
16 0 14 0 13 0 11 0 9 0 11 0 13 0 14 0 16 0 18 0 20 0 21 0 21 0 20 0 18 0 16 0 16 0 14 0 13 0 11 0 
13 0 16 0 9 0 13 0 11 0 14 0 8 0 11 0 9 3 
13 1 14 1 13 1 11 1 9 1 11 1 9 1 8 1 6 1 9 1 8 1 6 1 5 1 6 1 8 1 5 1 1 1 3 1 5 1 1 1 
6 0 5 0 6 0 8 0 9 0 8 0 9 0 11 0 13 0 12 0 13 0 12 0 13 0 14 0 13 0 11 0 
9 0 11 0 9 0 8 0 6 0 9 0 8 0 6 0 4 0 6 0 8 0 4 0 1 0 3 0 4 0 1 0 3 0 4 0 6 0 3 0 0 0 1 0 3 0 0 0 1 0 
16 0 14 0 13 0 11 0 9 0 11 0 13 0 14 0 16 0 18 0 20 0 21 0 21 0 20 0 18 0 16 0 16 0 14 0 13 0 11 0 
9 0 11 0 13 0 14 0 16 0 18 0 20 0 21 0 22 3 23 0 
16 0 14 0 13 0 11 0 9 0 11 0 13 0 14 0 16 0 18 0 20 0 21 0 21 0 20 0 18 0 16 0 16 0 14 0 13 0 11 0 
13 0 16 0 9 0 13 0 11 0 14 0 8 0 11 0 9 3 
9 1 11 1 13 3 9 1 11 1 13 1 11 1 9 1 8 1 6 1 8 1 9 1 11 1 8 1 4 1 
9 1 11 1 13 3 9 1 11 1 13 1 11 1 9 1 8 1 6 1 11 1 8 1 4 1 9 3 